%nprocshared=8
%mem=24GB
# B3LYP/6-31G(2df,p) opt freq

0_rdkit_conf_3

0 2
 O  -0.21340000  -2.27600000  -0.55440000
 O  -0.54010000  -1.41360000   0.39040000
 C  -0.41330000  -0.12250000  -0.16580000
 O   0.64620000   0.56750000   0.46860000
 C   1.88540000   0.13610000  -0.04930000
 C  -1.70530000   0.64020000   0.10040000
 H  -0.28580000  -0.12890000  -1.28010000
 H   1.97240000   0.36910000  -1.13370000
 H   2.04510000  -0.94930000   0.13140000
 H   2.69580000   0.68330000   0.47450000
 H  -2.55910000   0.12100000  -0.38490000
 H  -1.89630000   0.70460000   1.19310000
 H  -1.63150000   1.66850000  -0.31360000

