%nprocshared=8
%mem=24GB
# B3LYP/6-31G(2df,p) opt freq

1_rdkit_conf_9

0 2
 O  -3.02650000  -0.81900000  -0.45340000
 O  -2.23640000  -0.80820000   0.60400000
 C  -1.25520000   0.16810000   0.35780000
 C  -0.13840000  -0.40090000  -0.52130000
 O   0.83680000   0.59290000  -0.77610000
 C   1.92750000   0.45150000   0.10740000
 H  -1.69150000   1.08160000  -0.11030000
 H  -0.82550000   0.47700000   1.33350000
 H   0.27500000  -1.33050000  -0.06080000
 H  -0.57530000  -0.70300000  -1.49650000
 H   1.60050000   0.48830000   1.17010000
 H   2.62900000   1.29470000  -0.05820000
 H   2.47980000  -0.49240000  -0.09620000

