%nprocshared=8
%mem=24GB
# B3LYP/6-31G(2df,p) opt freq

1_rdkit_conf_3

0 2
 O   2.92020000   0.95330000  -0.24280000
 O   2.41860000  -0.10310000  -0.85520000
 C   1.45150000  -0.64310000   0.01070000
 C   0.13010000   0.11200000  -0.11980000
 O  -0.83560000  -0.50120000   0.70750000
 C  -2.05940000   0.18830000   0.58670000
 H   1.28490000  -1.70370000  -0.27490000
 H   1.79930000  -0.63960000   1.07040000
 H   0.29370000   1.17060000   0.18680000
 H  -0.18800000   0.07970000  -1.18750000
 H  -2.44540000   0.14510000  -0.45620000
 H  -2.80800000  -0.30320000   1.24140000
 H  -1.96200000   1.24490000   0.92210000

