%nprocshared=8
%mem=24GB
# B3LYP/6-31G(2df,p) opt freq

1_rdkit_conf_1

0 2
 O   3.59520000   0.17830000  -0.07870000
 O   2.48780000  -0.17970000   0.54240000
 C   1.43420000   0.23260000  -0.28690000
 C   0.10580000  -0.14320000   0.35690000
 O  -0.94980000   0.27440000  -0.48230000
 C  -2.18160000  -0.07150000   0.11000000
 H   1.46690000   1.33720000  -0.42810000
 H   1.50860000  -0.26810000  -1.27920000
 H   0.04220000   0.35910000   1.34990000
 H   0.08390000  -1.24860000   0.49750000
 H  -2.27490000  -1.17370000   0.23210000
 H  -3.00130000   0.26190000  -0.55900000
 H  -2.31680000   0.44130000   1.08830000

