%nprocshared=8
%mem=24GB
# B3LYP/6-31G(2df,p) opt freq

1_rdkit_conf_6

0 2
 O  -3.18770000  -0.64720000  -0.98830000
 O  -2.41240000   0.15820000  -0.28800000
 C  -1.16420000  -0.47830000  -0.21760000
 C  -0.19870000   0.38810000   0.58760000
 O   1.04000000  -0.27790000   0.74830000
 C   1.96890000   0.16990000  -0.21440000
 H  -1.26620000  -1.46690000   0.28560000
 H  -0.75480000  -0.62850000  -1.24180000
 H  -0.63240000   0.54710000   1.59800000
 H  -0.10960000   1.39870000   0.12090000
 H   2.89610000  -0.43140000  -0.11840000
 H   2.23730000   1.23490000  -0.03780000
 H   1.58370000   0.03320000  -1.24900000

