%nprocshared=8
%mem=24GB
# B3LYP/6-31G(2df,p) opt freq

2_rdkit_conf_1

0 2
 O  -0.10010000   2.25910000   0.75140000
 O  -0.09490000   1.02900000   1.23420000
 C  -0.33030000   0.14820000   0.15090000
 C  -0.17520000  -1.30270000   0.65390000
 O   0.53820000   0.41630000  -0.94970000
 C   1.90670000   0.28180000  -0.61510000
 C  -1.77850000   0.32120000  -0.34330000
 H  -0.97430000  -1.55000000   1.38580000
 H   0.79710000  -1.44100000   1.17190000
 H  -0.23460000  -2.01620000  -0.19590000
 H   2.16470000   0.73910000   0.36460000
 H   2.20570000  -0.78750000  -0.63230000
 H   2.50820000   0.80280000  -1.38780000
 H  -2.49590000   0.19530000   0.49620000
 H  -1.92470000   1.33160000  -0.78080000
 H  -2.01200000  -0.42730000  -1.13120000

