%nprocshared=8
%mem=24GB
# B3LYP/6-31G(2df,p) opt freq

3_rdkit_conf_7

0 2
 O  -1.22780000   2.48830000   0.63140000
 O  -1.25820000   1.45930000   1.45780000
 C  -1.45870000   0.31300000   0.66670000
 C  -0.11360000  -0.25630000   0.19200000
 C  -0.33250000  -1.58940000  -0.53000000
 O   0.48700000   0.66610000  -0.70250000
 C   1.87810000   0.74250000  -0.48050000
 H  -2.13180000   0.51490000  -0.20070000
 H  -1.97000000  -0.44550000   1.29780000
 H   0.49910000  -0.45220000   1.10670000
 H  -0.81920000  -2.32190000   0.14880000
 H  -0.97210000  -1.44470000  -1.42710000
 H   0.64200000  -2.01140000  -0.85350000
 H   2.09340000   1.18560000   0.51680000
 H   2.36070000  -0.25550000  -0.57500000
 H   2.32360000   1.40720000  -1.24870000

