%nprocshared=8
%mem=24GB
# B3LYP/6-31G(2df,p) opt freq

3_rdkit_conf_1

0 2
 O   3.42470000  -0.29600000  -0.63880000
 O   2.31810000   0.20500000  -0.12450000
 C   1.30640000  -0.72380000  -0.41360000
 C  -0.02600000  -0.21670000   0.14630000
 C  -1.13350000  -1.24110000  -0.11970000
 O  -0.35180000   1.00650000  -0.49360000
 C  -0.92300000   1.91280000   0.42450000
 H   1.21600000  -0.85860000  -1.51640000
 H   1.55150000  -1.70500000   0.05450000
 H   0.10130000  -0.11810000   1.25290000
 H  -0.88060000  -2.21500000   0.35140000
 H  -1.27030000  -1.39100000  -1.21220000
 H  -2.09250000  -0.88620000   0.31220000
 H  -0.17550000   2.22340000   1.18750000
 H  -1.24110000   2.82170000  -0.12600000
 H  -1.82350000   1.48200000   0.91550000

