%nprocshared=8
%mem=24GB
# B3LYP/6-31G(2df,p) opt freq

3_rdkit_conf_2

0 2
 O   3.42300000  -1.06600000   0.21850000
 O   2.19120000  -1.13800000  -0.24820000
 C   1.48860000  -0.08590000   0.36070000
 C   0.03110000  -0.08110000  -0.11450000
 C  -0.69080000  -1.35450000   0.34210000
 O  -0.61620000   1.05010000   0.44460000
 C  -1.49640000   1.63530000  -0.49020000
 H   1.51860000  -0.18960000   1.47010000
 H   1.95390000   0.88680000   0.08060000
 H   0.05200000  -0.06710000  -1.23250000
 H  -1.74190000  -1.34470000  -0.01470000
 H  -0.69430000  -1.42310000   1.45110000
 H  -0.19430000  -2.25580000  -0.07590000
 H  -2.24760000   0.90160000  -0.85750000
 H  -2.04590000   2.45970000   0.00850000
 H  -0.93110000   2.07220000  -1.34260000

