%nprocshared=8
%mem=24GB
# B3LYP/6-31G(2df,p) opt freq

3_rdkit_conf_11

0 2
 O  -0.98080000   2.61540000   0.47020000
 O  -1.75650000   1.59370000   0.15870000
 C  -1.09450000   0.88020000  -0.85920000
 C  -0.14560000  -0.18070000  -0.27780000
 C  -0.91510000  -1.18180000   0.59200000
 O   0.84930000   0.46360000   0.50130000
 C   2.10510000  -0.15300000   0.31870000
 H  -1.86240000   0.37420000  -1.48310000
 H  -0.53280000   1.55660000  -1.54630000
 H   0.27580000  -0.73610000  -1.15180000
 H  -1.73420000  -1.65220000   0.00730000
 H  -1.34740000  -0.67640000   1.48180000
 H  -0.23330000  -1.98530000   0.94060000
 H   2.83570000   0.32100000   1.00580000
 H   2.06610000  -1.23770000   0.56250000
 H   2.47050000  -0.00130000  -0.72080000

