%nprocshared=8
%mem=24GB
# B3LYP/6-31G(2df,p) opt freq

3_rdkit_conf_9

0 2
 O   2.54090000   0.62070000   1.57890000
 O   2.34560000   0.96320000   0.31910000
 C   0.97830000   1.27260000   0.19700000
 C   0.12860000   0.00180000   0.03470000
 C   0.52620000  -0.75550000  -1.23790000
 O  -1.23320000   0.38720000  -0.05680000
 C  -2.05760000  -0.51610000   0.64690000
 H   0.61760000   1.86320000   1.07190000
 H   0.84470000   1.91980000  -0.69660000
 H   0.33920000  -0.65360000   0.91540000
 H   1.59210000  -1.06390000  -1.19090000
 H  -0.09200000  -1.67130000  -1.34450000
 H   0.37120000  -0.11760000  -2.13430000
 H  -3.11700000  -0.23240000   0.48070000
 H  -1.85960000  -0.45970000   1.74000000
 H  -1.92520000  -1.55840000   0.28140000

