%nprocshared=8
%mem=24GB
# B3LYP/6-31G(2df,p) opt freq

4_rdkit_conf_3

0 2
 O   1.07850000  -0.78230000   2.61310000
 O   0.13720000  -1.26220000   1.82270000
 C   0.03320000  -0.36570000   0.74530000
 C  -1.22670000  -0.72340000  -0.05170000
 C  -1.48070000   0.25830000  -1.19440000
 O   1.16850000  -0.51590000  -0.09480000
 C   1.91090000   0.68190000  -0.15240000
 H  -0.11640000   0.67270000   1.14270000
 H  -2.10600000  -0.71060000   0.62900000
 H  -1.12830000  -1.75010000  -0.46740000
 H  -2.42230000  -0.01530000  -1.71540000
 H  -1.58070000   1.29240000  -0.80140000
 H  -0.64920000   0.22290000  -1.92970000
 H   2.28320000   0.97120000   0.85510000
 H   1.30600000   1.50430000  -0.59460000
 H   2.79260000   0.52170000  -0.80610000

