%nprocshared=8
%mem=24GB
# B3LYP/6-31G(2df,p) opt freq

4_rdkit_conf_2

0 2
 O  -0.31980000  -2.71910000  -0.24590000
 O   0.43490000  -1.78470000   0.30100000
 C  -0.13370000  -0.55480000  -0.07290000
 C   0.81580000   0.57680000   0.34700000
 C   2.14980000   0.51030000  -0.39500000
 O  -1.36790000  -0.39570000   0.60980000
 C  -2.32860000   0.20650000  -0.22980000
 H  -0.23480000  -0.52520000  -1.18940000
 H   0.34150000   1.55840000   0.13150000
 H   1.00310000   0.51980000   1.44160000
 H   2.67730000  -0.43950000  -0.16450000
 H   2.79370000   1.35690000  -0.07640000
 H   1.98620000   0.58310000  -1.49130000
 H  -2.59430000  -0.46990000  -1.07200000
 H  -1.97350000   1.18740000  -0.61660000
 H  -3.25000000   0.38970000   0.36000000

