%nprocshared=8
%mem=24GB
# B3LYP/6-31G(2df,p) opt freq

4_rdkit_conf_6

0 2
 O  -0.44640000   1.78230000  -1.03840000
 O   0.00630000   0.54610000  -1.13890000
 C   0.22380000   0.07630000   0.17570000
 C  -0.86440000  -0.94470000   0.53230000
 C  -2.25230000  -0.31010000   0.60620000
 O   1.47400000  -0.58320000   0.23040000
 C   2.52030000   0.36340000   0.25500000
 H   0.18030000   0.88780000   0.94960000
 H  -0.87510000  -1.76010000  -0.22380000
 H  -0.62930000  -1.39630000   1.52090000
 H  -2.99340000  -1.07630000   0.91700000
 H  -2.55300000   0.08560000  -0.38670000
 H  -2.26230000   0.51440000   1.35050000
 H   3.48760000  -0.17920000   0.23550000
 H   2.49240000   0.96500000   1.19020000
 H   2.49140000   1.02880000  -0.63620000

