%nprocshared=8
%mem=24GB
# B3LYP/6-31G(2df,p) opt freq

4_rdkit_conf_4

0 2
 O   0.32940000   1.87690000  -1.67850000
 O   0.23150000   0.58080000  -1.44660000
 C   0.37480000   0.40750000  -0.05350000
 C  -0.95280000   0.71750000   0.65940000
 C  -2.10600000  -0.15860000   0.16800000
 O   0.73680000  -0.93320000   0.22080000
 C   2.09450000  -1.14530000  -0.10040000
 H   1.14040000   1.10930000   0.36660000
 H  -0.82300000   0.56170000   1.75250000
 H  -1.21880000   1.78530000   0.50230000
 H  -2.28770000   0.00720000  -0.91490000
 H  -3.03130000   0.10340000   0.72310000
 H  -1.88320000  -1.23220000   0.34370000
 H   2.75910000  -0.54980000   0.56360000
 H   2.33240000  -2.21650000   0.06230000
 H   2.30380000  -0.91410000  -1.16840000

