%nprocshared=8
%mem=24GB
# B3LYP/6-31G(2df,p) opt freq

4_rdkit_conf_1

0 2
 O   0.31580000   1.96300000  -1.91020000
 O  -0.25010000   1.82930000  -0.72470000
 C  -0.07540000   0.48340000  -0.34160000
 C   1.31910000   0.31240000   0.28060000
 C   1.59940000  -1.14070000   0.66050000
 O  -1.04790000   0.15210000   0.63210000
 C  -2.29680000  -0.07010000   0.01400000
 H  -0.14490000  -0.20530000  -1.22370000
 H   1.40410000   0.95040000   1.18730000
 H   2.09370000   0.64190000  -0.44550000
 H   0.87450000  -1.49040000   1.42590000
 H   2.62340000  -1.22270000   1.08200000
 H   1.53150000  -1.79420000  -0.23520000
 H  -2.62730000   0.81590000  -0.57240000
 H  -3.05450000  -0.25060000   0.80380000
 H  -2.26450000  -0.97430000  -0.63310000

